c nIsolatedPIs 0
c maxPI 32
p cnf 333 904
c gate 33 8 24 0
8 -33 0
24 -33 0
-8 -24 33 0
c gate 34 -7 -23 0
-7 -34 0
-23 -34 0
7 23 34 0
c gate 35 -6 -22 0
-6 -35 0
-22 -35 0
6 22 35 0
c gate 36 5 21 0
5 -36 0
21 -36 0
-5 -21 36 0
c gate 37 4 20 0
4 -37 0
20 -37 0
-4 -20 37 0
c gate 38 3 19 0
3 -38 0
19 -38 0
-3 -19 38 0
c gate 39 -2 18 0
-2 -39 0
18 -39 0
2 -18 39 0
c gate 40 2 -18 0
2 -40 0
-18 -40 0
-2 18 40 0
c gate 41 -39 -40 0
-39 -41 0
-40 -41 0
39 40 41 0
c gate 42 1 17 0
1 -42 0
17 -42 0
-1 -17 42 0
c gate 43 -41 42 0
-41 -43 0
42 -43 0
41 -42 43 0
c gate 44 2 18 0
2 -44 0
18 -44 0
-2 -18 44 0
c gate 45 -43 -44 0
-43 -45 0
-44 -45 0
43 44 45 0
c gate 46 18 -45 0
18 -46 0
-45 -46 0
-18 45 46 0
c gate 47 -38 -46 0
-38 -47 0
-46 -47 0
38 46 47 0
c gate 48 -4 -20 0
-4 -48 0
-20 -48 0
4 20 48 0
c gate 49 -37 -48 0
-37 -49 0
-48 -49 0
37 48 49 0
c gate 50 -47 49 0
-47 -50 0
49 -50 0
47 -49 50 0
c gate 51 -37 -50 0
-37 -51 0
-50 -51 0
37 50 51 0
c gate 52 -36 51 0
-36 -52 0
51 -52 0
36 -51 52 0
c gate 53 -35 -52 0
-35 -53 0
-52 -53 0
35 52 53 0
c gate 54 7 -23 0
7 -54 0
-23 -54 0
-7 23 54 0
c gate 55 -7 23 0
-7 -55 0
23 -55 0
7 -23 55 0
c gate 56 -54 -55 0
-54 -56 0
-55 -56 0
54 55 56 0
c gate 57 -53 -56 0
-53 -57 0
-56 -57 0
53 56 57 0
c gate 58 -34 -57 0
-34 -58 0
-57 -58 0
34 57 58 0
c gate 59 -33 -58 0
-33 -59 0
-58 -59 0
33 58 59 0
c gate 60 9 25 0
9 -60 0
25 -60 0
-9 -25 60 0
c gate 61 -9 -25 0
-9 -61 0
-25 -61 0
9 25 61 0
c gate 62 -60 -61 0
-60 -62 0
-61 -62 0
60 61 62 0
c gate 63 -59 62 0
-59 -63 0
62 -63 0
59 -62 63 0
c gate 64 59 -62 0
59 -64 0
-62 -64 0
-59 62 64 0
c gate 65 -63 -64 0
-63 -65 0
-64 -65 0
63 64 65 0
c gate 66 7 23 0
7 -66 0
23 -66 0
-7 -23 66 0
c gate 67 6 22 0
6 -67 0
22 -67 0
-6 -22 67 0
c gate 68 -5 21 0
-5 -68 0
21 -68 0
5 -21 68 0
c gate 69 5 -21 0
5 -69 0
-21 -69 0
-5 21 69 0
c gate 70 -68 -69 0
-68 -70 0
-69 -70 0
68 69 70 0
c gate 71 -3 19 0
-3 -71 0
19 -71 0
3 -19 71 0
c gate 72 3 -19 0
3 -72 0
-19 -72 0
-3 19 72 0
c gate 73 -71 -72 0
-71 -73 0
-72 -73 0
71 72 73 0
c gate 74 -45 -73 0
-45 -74 0
-73 -74 0
45 73 74 0
c gate 75 -38 -74 0
-38 -75 0
-74 -75 0
38 74 75 0
c gate 76 49 75 0
49 -76 0
75 -76 0
-49 -75 76 0
c gate 77 -48 -76 0
-48 -77 0
-76 -77 0
48 76 77 0
c gate 78 -70 77 0
-70 -78 0
77 -78 0
70 -77 78 0
c gate 79 -36 -78 0
-36 -79 0
-78 -79 0
36 78 79 0
c gate 80 6 -22 0
6 -80 0
-22 -80 0
-6 22 80 0
c gate 81 -6 22 0
-6 -81 0
22 -81 0
6 -22 81 0
c gate 82 -80 -81 0
-80 -82 0
-81 -82 0
80 81 82 0
c gate 83 -79 -82 0
-79 -83 0
-82 -83 0
79 82 83 0
c gate 84 -67 -83 0
-67 -84 0
-83 -84 0
67 83 84 0
c gate 85 -56 -84 0
-56 -85 0
-84 -85 0
56 84 85 0
c gate 86 -66 -85 0
-66 -86 0
-85 -86 0
66 85 86 0
c gate 87 -8 24 0
-8 -87 0
24 -87 0
8 -24 87 0
c gate 88 8 -24 0
8 -88 0
-24 -88 0
-8 24 88 0
c gate 89 -87 -88 0
-87 -89 0
-88 -89 0
87 88 89 0
c gate 90 -86 -89 0
-86 -90 0
-89 -90 0
86 89 90 0
c gate 91 -33 -90 0
-33 -91 0
-90 -91 0
33 90 91 0
c gate 92 62 91 0
62 -92 0
91 -92 0
-62 -91 92 0
c gate 93 -62 -91 0
-62 -93 0
-91 -93 0
62 91 93 0
c gate 94 -92 -93 0
-92 -94 0
-93 -94 0
92 93 94 0
c gate 95 65 94 0
65 -95 0
94 -95 0
-65 -94 95 0
c gate 96 -65 -94 0
-65 -96 0
-94 -96 0
65 94 96 0
c gate 97 -95 -96 0
-95 -97 0
-96 -97 0
95 96 97 0
c gate 98 86 89 0
86 -98 0
89 -98 0
-86 -89 98 0
c gate 99 -90 -98 0
-90 -99 0
-98 -99 0
90 98 99 0
c gate 100 58 89 0
58 -100 0
89 -100 0
-58 -89 100 0
c gate 101 -58 -89 0
-58 -101 0
-89 -101 0
58 89 101 0
c gate 102 -100 -101 0
-100 -102 0
-101 -102 0
100 101 102 0
c gate 103 -99 -102 0
-99 -103 0
-102 -103 0
99 102 103 0
c gate 104 99 102 0
99 -104 0
102 -104 0
-99 -102 104 0
c gate 105 53 56 0
53 -105 0
56 -105 0
-53 -56 105 0
c gate 106 -57 -105 0
-57 -106 0
-105 -106 0
57 105 106 0
c gate 107 56 84 0
56 -107 0
84 -107 0
-56 -84 107 0
c gate 108 -85 -107 0
-85 -108 0
-107 -108 0
85 107 108 0
c gate 109 -106 -108 0
-106 -109 0
-108 -109 0
106 108 109 0
c gate 110 106 108 0
106 -110 0
108 -110 0
-106 -108 110 0
c gate 111 79 82 0
79 -111 0
82 -111 0
-79 -82 111 0
c gate 112 -83 -111 0
-83 -112 0
-111 -112 0
83 111 112 0
c gate 113 52 82 0
52 -113 0
82 -113 0
-52 -82 113 0
c gate 114 -52 -82 0
-52 -114 0
-82 -114 0
52 82 114 0
c gate 115 -113 -114 0
-113 -115 0
-114 -115 0
113 114 115 0
c gate 116 -112 115 0
-112 -116 0
115 -116 0
112 -115 116 0
c gate 117 70 -77 0
70 -117 0
-77 -117 0
-70 77 117 0
c gate 118 -78 -117 0
-78 -118 0
-117 -118 0
78 117 118 0
c gate 119 51 -70 0
51 -119 0
-70 -119 0
-51 70 119 0
c gate 120 -51 70 0
-51 -120 0
70 -120 0
51 -70 120 0
c gate 121 -119 -120 0
-119 -121 0
-120 -121 0
119 120 121 0
c gate 122 118 121 0
118 -122 0
121 -122 0
-118 -121 122 0
c gate 123 112 -115 0
112 -123 0
-115 -123 0
-112 115 123 0
c gate 124 -116 -123 0
-116 -124 0
-123 -124 0
116 123 124 0
c gate 125 -122 124 0
-122 -125 0
124 -125 0
122 -124 125 0
c gate 126 -116 -125 0
-116 -126 0
-125 -126 0
116 125 126 0
c gate 127 -110 -126 0
-110 -127 0
-126 -127 0
110 126 127 0
c gate 128 18 -73 0
18 -128 0
-73 -128 0
-18 73 128 0
c gate 129 -45 -128 0
-45 -129 0
-128 -129 0
45 128 129 0
c gate 130 -118 -121 0
-118 -130 0
-121 -130 0
118 121 130 0
c gate 131 -2 74 0
-2 -131 0
74 -131 0
2 -74 131 0
c gate 132 -49 -75 0
-49 -132 0
-75 -132 0
49 75 132 0
c gate 133 -76 -132 0
-76 -133 0
-132 -133 0
76 132 133 0
c gate 134 47 -49 0
47 -134 0
-49 -134 0
-47 49 134 0
c gate 135 -50 -134 0
-50 -135 0
-134 -135 0
50 134 135 0
c gate 136 133 135 0
133 -136 0
135 -136 0
-133 -135 136 0
c gate 137 -131 -136 0
-131 -137 0
-136 -137 0
131 136 137 0
c gate 138 -130 137 0
-130 -138 0
137 -138 0
130 -137 138 0
c gate 139 125 138 0
125 -139 0
138 -139 0
-125 -138 139 0
c gate 140 129 139 0
129 -140 0
139 -140 0
-129 -139 140 0
c gate 141 127 -140 0
127 -141 0
-140 -141 0
-127 140 141 0
c gate 142 -109 -141 0
-109 -142 0
-141 -142 0
109 141 142 0
c gate 143 -104 -142 0
-104 -143 0
-142 -143 0
104 142 143 0
c gate 144 -103 -143 0
-103 -144 0
-143 -144 0
103 143 144 0
c gate 145 12 28 0
12 -145 0
28 -145 0
-12 -28 145 0
c gate 146 -12 28 0
-12 -146 0
28 -146 0
12 -28 146 0
c gate 147 12 -28 0
12 -147 0
-28 -147 0
-12 28 147 0
c gate 148 -146 -147 0
-146 -148 0
-147 -148 0
146 147 148 0
c gate 149 11 27 0
11 -149 0
27 -149 0
-11 -27 149 0
c gate 150 10 26 0
10 -150 0
26 -150 0
-10 -26 150 0
c gate 151 -60 -63 0
-60 -151 0
-63 -151 0
60 63 151 0
c gate 152 -10 -26 0
-10 -152 0
-26 -152 0
10 26 152 0
c gate 153 -150 -152 0
-150 -153 0
-152 -153 0
150 152 153 0
c gate 154 -151 153 0
-151 -154 0
153 -154 0
151 -153 154 0
c gate 155 -150 -154 0
-150 -155 0
-154 -155 0
150 154 155 0
c gate 156 -11 -27 0
-11 -156 0
-27 -156 0
11 27 156 0
c gate 157 -149 -156 0
-149 -157 0
-156 -157 0
149 156 157 0
c gate 158 -155 157 0
-155 -158 0
157 -158 0
155 -157 158 0
c gate 159 -149 -158 0
-149 -159 0
-158 -159 0
149 158 159 0
c gate 160 -148 -159 0
-148 -160 0
-159 -160 0
148 159 160 0
c gate 161 -145 -160 0
-145 -161 0
-160 -161 0
145 160 161 0
c gate 162 16 -32 0
16 -162 0
-32 -162 0
-16 32 162 0
c gate 163 -16 32 0
-16 -163 0
32 -163 0
16 -32 163 0
c gate 164 -162 -163 0
-162 -164 0
-163 -164 0
162 163 164 0
c gate 165 15 31 0
15 -165 0
31 -165 0
-15 -31 165 0
c gate 166 -15 -31 0
-15 -166 0
-31 -166 0
15 31 166 0
c gate 167 14 30 0
14 -167 0
30 -167 0
-14 -30 167 0
c gate 168 -13 -29 0
-13 -168 0
-29 -168 0
13 29 168 0
c gate 169 -14 -30 0
-14 -169 0
-30 -169 0
14 30 169 0
c gate 170 -168 -169 0
-168 -170 0
-169 -170 0
168 169 170 0
c gate 171 -12 -28 0
-12 -171 0
-28 -171 0
12 28 171 0
c gate 172 -61 -92 0
-61 -172 0
-92 -172 0
61 92 172 0
c gate 173 153 -172 0
153 -173 0
-172 -173 0
-153 172 173 0
c gate 174 -152 -156 0
-152 -174 0
-156 -174 0
152 156 174 0
c gate 175 -173 174 0
-173 -175 0
174 -175 0
173 -174 175 0
c gate 176 -149 -175 0
-149 -176 0
-175 -176 0
149 175 176 0
c gate 177 -171 -176 0
-171 -177 0
-176 -177 0
171 176 177 0
c gate 178 13 29 0
13 -178 0
29 -178 0
-13 -29 178 0
c gate 179 -145 -178 0
-145 -179 0
-178 -179 0
145 178 179 0
c gate 180 -177 179 0
-177 -180 0
179 -180 0
177 -179 180 0
c gate 181 170 -180 0
170 -181 0
-180 -181 0
-170 180 181 0
c gate 182 -167 -181 0
-167 -182 0
-181 -182 0
167 181 182 0
c gate 183 -166 -182 0
-166 -183 0
-182 -183 0
166 182 183 0
c gate 184 -165 -183 0
-165 -184 0
-183 -184 0
165 183 184 0
c gate 185 -164 184 0
-164 -185 0
184 -185 0
164 -184 185 0
c gate 186 164 -184 0
164 -186 0
-184 -186 0
-164 184 186 0
c gate 187 -185 -186 0
-185 -187 0
-186 -187 0
185 186 187 0
c gate 188 161 -178 0
161 -188 0
-178 -188 0
-161 178 188 0
c gate 189 170 -188 0
170 -189 0
-188 -189 0
-170 188 189 0
c gate 190 -167 -189 0
-167 -190 0
-189 -190 0
167 189 190 0
c gate 191 -166 -190 0
-166 -191 0
-190 -191 0
166 190 191 0
c gate 192 -165 -191 0
-165 -192 0
-191 -192 0
165 191 192 0
c gate 193 164 -192 0
164 -193 0
-192 -193 0
-164 192 193 0
c gate 194 -164 192 0
-164 -194 0
192 -194 0
164 -192 194 0
c gate 195 -193 -194 0
-193 -195 0
-194 -195 0
193 194 195 0
c gate 196 187 -195 0
187 -196 0
-195 -196 0
-187 195 196 0
c gate 197 161 196 0
161 -197 0
196 -197 0
-161 -196 197 0
c gate 198 97 -144 0
97 -198 0
-144 -198 0
-97 144 198 0
c gate 199 -159 -176 0
-159 -199 0
-176 -199 0
159 176 199 0
c gate 200 148 175 0
148 -200 0
175 -200 0
-148 -175 200 0
c gate 201 -160 -200 0
-160 -201 0
-200 -201 0
160 200 201 0
c gate 202 -199 -201 0
-199 -202 0
-201 -202 0
199 201 202 0
c gate 203 155 -157 0
155 -203 0
-157 -203 0
-155 157 203 0
c gate 204 151 -153 0
151 -204 0
-153 -204 0
-151 153 204 0
c gate 205 -154 -204 0
-154 -205 0
-204 -205 0
154 204 205 0
c gate 206 -153 172 0
-153 -206 0
172 -206 0
153 -172 206 0
c gate 207 -173 -206 0
-173 -207 0
-206 -207 0
173 206 207 0
c gate 208 205 207 0
205 -208 0
207 -208 0
-205 -207 208 0
c gate 209 -205 -207 0
-205 -209 0
-207 -209 0
205 207 209 0
c gate 210 -208 -209 0
-208 -210 0
-209 -210 0
208 209 210 0
c gate 211 153 -210 0
153 -211 0
-210 -211 0
-153 210 211 0
c gate 212 -203 211 0
-203 -212 0
211 -212 0
203 -211 212 0
c gate 213 96 -208 0
96 -213 0
-208 -213 0
-96 208 213 0
c gate 214 -209 -213 0
-209 -214 0
-213 -214 0
209 213 214 0
c gate 215 -211 214 0
-211 -215 0
214 -215 0
211 -214 215 0
c gate 216 -212 -215 0
-212 -216 0
-215 -216 0
212 215 216 0
c gate 217 -202 -216 0
-202 -217 0
-216 -217 0
202 216 217 0
c gate 218 -97 217 0
-97 -218 0
217 -218 0
97 -217 218 0
c gate 219 -148 157 0
-148 -219 0
157 -219 0
148 -157 219 0
c gate 220 211 219 0
211 -220 0
219 -220 0
-211 -219 220 0
c gate 221 -218 -220 0
-218 -221 0
-220 -221 0
218 220 221 0
c gate 222 -187 195 0
-187 -222 0
195 -222 0
187 -195 222 0
c gate 223 -14 30 0
-14 -223 0
30 -223 0
14 -30 223 0
c gate 224 14 -30 0
14 -224 0
-30 -224 0
-14 30 224 0
c gate 225 -223 -224 0
-223 -225 0
-224 -225 0
223 224 225 0
c gate 226 -165 -166 0
-165 -226 0
-166 -226 0
165 166 226 0
c gate 227 -13 29 0
-13 -227 0
29 -227 0
13 -29 227 0
c gate 228 13 -29 0
13 -228 0
-29 -228 0
-13 29 228 0
c gate 229 -227 -228 0
-227 -229 0
-228 -229 0
227 228 229 0
c gate 230 226 -229 0
226 -230 0
-229 -230 0
-226 229 230 0
c gate 231 -225 230 0
-225 -231 0
230 -231 0
225 -230 231 0
c gate 232 -175 -231 0
-175 -232 0
-231 -232 0
175 231 232 0
c gate 233 -158 231 0
-158 -233 0
231 -233 0
158 -231 233 0
c gate 234 -148 -233 0
-148 -234 0
-233 -234 0
148 233 234 0
c gate 235 -232 234 0
-232 -235 0
234 -235 0
232 -234 235 0
c gate 236 -199 235 0
-199 -236 0
235 -236 0
199 -235 236 0
c gate 237 -196 236 0
-196 -237 0
236 -237 0
196 -236 237 0
c gate 238 -222 -237 0
-222 -238 0
-237 -238 0
222 237 238 0
c gate 239 -221 238 0
-221 -239 0
238 -239 0
221 -238 239 0
c gate 240 -198 -239 0
-198 -240 0
-239 -240 0
198 239 240 0
c gate 241 185 191 0
185 -241 0
191 -241 0
-185 -191 241 0
c gate 242 -240 -241 0
-240 -242 0
-241 -242 0
240 241 242 0
c gate 243 -197 -242 0
-197 -243 0
-242 -243 0
197 242 243 0
c gate 244 4 -20 0
4 -244 0
-20 -244 0
-4 20 244 0
c gate 245 -1 17 0
-1 -245 0
17 -245 0
1 -17 245 0
c gate 246 -39 -245 0
-39 -246 0
-245 -246 0
39 245 246 0
c gate 247 -40 -72 0
-40 -247 0
-72 -247 0
40 72 247 0
c gate 248 -246 247 0
-246 -248 0
247 -248 0
246 -247 248 0
c gate 249 -71 -248 0
-71 -249 0
-248 -249 0
71 248 249 0
c gate 250 244 -249 0
244 -250 0
-249 -250 0
-244 249 250 0
c gate 251 -243 -250 0
-243 -251 0
-250 -251 0
243 250 251 0
c gate 252 56 70 0
56 -252 0
70 -252 0
-56 -70 252 0
c gate 253 82 252 0
82 -253 0
252 -253 0
-82 -252 253 0
c gate 254 250 253 0
250 -254 0
253 -254 0
-250 -253 254 0
c gate 255 -251 -254 0
-251 -255 0
-254 -255 0
251 254 255 0
c gate 256 -15 31 0
-15 -256 0
31 -256 0
15 -31 256 0
c gate 257 -11 27 0
-11 -257 0
27 -257 0
11 -27 257 0
c gate 258 10 -26 0
10 -258 0
-26 -258 0
-10 26 258 0
c gate 259 11 -27 0
11 -259 0
-27 -259 0
-11 27 259 0
c gate 260 -258 -259 0
-258 -260 0
-259 -260 0
258 259 260 0
c gate 261 -49 249 0
-49 -261 0
249 -261 0
49 -249 261 0
c gate 262 -69 -244 0
-69 -262 0
-244 -262 0
69 244 262 0
c gate 263 -261 262 0
-261 -263 0
262 -263 0
261 -262 263 0
c gate 264 -68 -263 0
-68 -264 0
-263 -264 0
68 263 264 0
c gate 265 -80 -264 0
-80 -265 0
-264 -265 0
80 264 265 0
c gate 266 -55 -81 0
-55 -266 0
-81 -266 0
55 81 266 0
c gate 267 -265 266 0
-265 -267 0
266 -267 0
265 -266 267 0
c gate 268 -54 -267 0
-54 -268 0
-267 -268 0
54 267 268 0
c gate 269 -87 -268 0
-87 -269 0
-268 -269 0
87 268 269 0
c gate 270 9 -25 0
9 -270 0
-25 -270 0
-9 25 270 0
c gate 271 -88 -270 0
-88 -271 0
-270 -271 0
88 270 271 0
c gate 272 -269 271 0
-269 -272 0
271 -272 0
269 -271 272 0
c gate 273 -10 26 0
-10 -273 0
26 -273 0
10 -26 273 0
c gate 274 -9 25 0
-9 -274 0
25 -274 0
9 -25 274 0
c gate 275 -273 -274 0
-273 -275 0
-274 -275 0
273 274 275 0
c gate 276 -272 275 0
-272 -276 0
275 -276 0
272 -275 276 0
c gate 277 260 -276 0
260 -277 0
-276 -277 0
-260 276 277 0
c gate 278 -257 -277 0
-257 -278 0
-277 -278 0
257 277 278 0
c gate 279 260 271 0
260 -279 0
271 -279 0
-260 -271 279 0
c gate 280 254 279 0
254 -280 0
279 -280 0
-254 -279 280 0
c gate 281 -146 -280 0
-146 -281 0
-280 -281 0
146 280 281 0
c gate 282 278 281 0
278 -282 0
281 -282 0
-278 -281 282 0
c gate 283 -147 -228 0
-147 -283 0
-228 -283 0
147 228 283 0
c gate 284 -282 283 0
-282 -284 0
283 -284 0
282 -283 284 0
c gate 285 -227 -284 0
-227 -285 0
-284 -285 0
227 284 285 0
c gate 286 -224 -285 0
-224 -286 0
-285 -286 0
224 285 286 0
c gate 287 -223 -286 0
-223 -287 0
-286 -287 0
223 286 287 0
c gate 288 15 -31 0
15 -288 0
-31 -288 0
-15 31 288 0
c gate 289 -287 -288 0
-287 -289 0
-288 -289 0
287 288 289 0
c gate 290 -256 -289 0
-256 -290 0
-289 -290 0
256 289 290 0
c gate 291 164 -290 0
164 -291 0
-290 -291 0
-164 290 291 0
c gate 292 -147 -278 0
-147 -292 0
-278 -292 0
147 278 292 0
c gate 293 -146 -227 0
-146 -293 0
-227 -293 0
146 227 293 0
c gate 294 -292 293 0
-292 -294 0
293 -294 0
292 -293 294 0
c gate 295 -228 -294 0
-228 -295 0
-294 -295 0
228 294 295 0
c gate 296 -223 -295 0
-223 -296 0
-295 -296 0
223 295 296 0
c gate 297 -224 -296 0
-224 -297 0
-296 -297 0
224 296 297 0
c gate 298 -256 -297 0
-256 -298 0
-297 -298 0
256 297 298 0
c gate 299 -288 -298 0
-288 -299 0
-298 -299 0
288 298 299 0
c gate 300 164 299 0
164 -300 0
299 -300 0
-164 -299 300 0
c gate 301 289 298 0
289 -301 0
298 -301 0
-289 -298 301 0
c gate 302 -300 -301 0
-300 -302 0
-301 -302 0
300 301 302 0
c gate 303 -291 -302 0
-291 -303 0
-302 -303 0
291 302 303 0
c gate 304 226 -287 0
226 -304 0
-287 -304 0
-226 287 304 0
c gate 305 -297 304 0
-297 -305 0
304 -305 0
297 -304 305 0
c gate 306 -226 287 0
-226 -306 0
287 -306 0
226 -287 306 0
c gate 307 297 306 0
297 -307 0
306 -307 0
-297 -306 307 0
c gate 308 -62 -153 0
-62 -308 0
-153 -308 0
62 153 308 0
c gate 309 89 -157 0
89 -309 0
-157 -309 0
-89 157 309 0
c gate 310 308 309 0
308 -310 0
309 -310 0
-308 -309 310 0
c gate 311 -268 -310 0
-268 -311 0
-310 -311 0
268 310 311 0
c gate 312 148 229 0
148 -312 0
229 -312 0
-148 -229 312 0
c gate 313 279 -312 0
279 -313 0
-312 -313 0
-279 312 313 0
c gate 314 278 313 0
278 -314 0
313 -314 0
-278 -313 314 0
c gate 315 -311 -314 0
-311 -315 0
-314 -315 0
311 314 315 0
c gate 316 254 -315 0
254 -316 0
-315 -316 0
-254 315 316 0
c gate 317 -225 -285 0
-225 -317 0
-285 -317 0
225 285 317 0
c gate 318 -295 317 0
-295 -318 0
317 -318 0
295 -317 318 0
c gate 319 -316 -318 0
-316 -319 0
-318 -319 0
316 318 319 0
c gate 320 -307 319 0
-307 -320 0
319 -320 0
307 -319 320 0
c gate 321 -305 320 0
-305 -321 0
320 -321 0
305 -320 321 0
c gate 322 -303 321 0
-303 -322 0
321 -322 0
303 -321 322 0
c gate 323 -255 322 0
-255 -323 0
322 -323 0
255 -322 323 0
c gate 324 -144 323 0
-144 -324 0
323 -324 0
144 -323 324 0
c gate 325 127 -139 0
127 -325 0
-139 -325 0
-127 139 325 0
c gate 326 -109 -325 0
-109 -326 0
-325 -326 0
109 325 326 0
c gate 327 -104 -326 0
-104 -327 0
-326 -327 0
104 326 327 0
c gate 328 -103 -327 0
-103 -328 0
-327 -328 0
103 327 328 0
c gate 329 -323 328 0
-323 -329 0
328 -329 0
323 -328 329 0
c gate 330 -324 -329 0
-324 -330 0
-329 -330 0
324 329 330 0
c gate 331 97 -330 0
97 -331 0
-330 -331 0
-97 330 331 0
c gate 332 -97 330 0
-97 -332 0
330 -332 0
97 -330 332 0
c gate 333 -331 -332 0
-331 -333 0
-332 -333 0
331 332 333 0
c PO
333 0
